2 30
892 809 
0 96 90 73 8 41 70 2
1 33 42 41 85 48 94 2
2 42 64 51 35 99 73 2
3 42 93 19 40 7 20 2
4 64 6 32 57 75 100 2
5 79 52 88 98 95 47 2
6 8 63 56 90 1 15 1
7 74 98 14 36 65 53 2
8 77 95 29 70 89 63 2
9 93 84 61 39 43 3 1
10 61 82 54 20 8 95 2
11 5 61 70 72 64 23 2
12 33 98 94 49 26 66 1
13 100 38 41 85 63 20 2
14 13 67 86 93 88 37 1
15 14 79 67 93 36 6 2
16 16 31 69 18 15 7 1
17 20 6 57 1 99 4 1
18 49 3 85 26 66 56 1
19 40 56 28 23 22 72 2
20 100 35 96 42 37 25 2
21 5 98 58 56 32 45 1
22 54 34 99 85 76 55 2
23 54 93 47 75 34 53 2
24 67 35 12 53 52 78 1
25 61 46 33 61 87 6 1
26 10 100 39 43 43 39 1
27 50 42 18 72 66 72 1
28 8 64 21 86 1 23 1
29 3 29 19 8 26 91 2
